&CONTROL
        calculation = 'scf'
        restart_mode='from_scratch'
        prefix='diamond'
        pseudo_dir = './'
        outdir = './'
/

&SYSTEM
        ibrav= 2
        A = 7.134
        nat= 16
        ntyp= 1
        occupations='smearing'
        smearing= mp
        degauss=0.01
        ecutwfc =40
/

&ELECTRONS
        diagonalization='david'
        mixing_mode = 'plain'
        mixing_beta = 0.7
        conv_thr = 1.0d-8
/

ATOMIC_SPECIES
C      12.00100  C.pbe-n-rrkjus_psl.1.0.0.UPF

ATOMIC_POSITIONS {crystal}
C       0.000000   0.000000   0.000000
C       0.125000   0.125000   0.125000
C       0.000000   0.000000   0.500000
C       0.125000   0.125000   0.625000
C       0.000000   0.500000   0.000000
C       0.125000   0.625000   0.125000
C       0.000000   0.500000   0.500000
C       0.125000   0.625000   0.625000
C       0.500000   0.000000   0.000000
C       0.625000   0.125000   0.125000
C       0.500000   0.000000   0.500000
C       0.625000   0.125000   0.625000
C       0.500000   0.500000   0.000000
C       0.625000   0.625000   0.125000
C       0.500000   0.500000   0.500000
C       0.625000   0.625000   0.625000
K_POINTS {automatic}
8 8 8 0 0 0
